p cnf 64 508
1 2 4 3 0
-1 -2 0
-1 -4 0
-1 -3 0
-2 -4 0
-2 -3 0
-3 -4 0
5 6 8 7 0
-5 -6 0
-5 -8 0
-5 -7 0
-6 -8 0
-6 -7 0
-7 -8 0
9 10 12 11 0
-9 -10 0
-9 -12 0
-9 -11 0
-10 -12 0
-10 -11 0
-11 -12 0
13 14 16 15 0
-13 -14 0
-13 -16 0
-13 -15 0
-14 -16 0
-14 -15 0
-15 -16 0
17 18 20 19 0
-17 -18 0
-17 -20 0
-17 -19 0
-18 -20 0
-18 -19 0
-19 -20 0
21 22 24 23 0
-21 -22 0
-21 -24 0
-21 -23 0
-22 -24 0
-22 -23 0
-23 -24 0
25 26 28 27 0
-25 -26 0
-25 -28 0
-25 -27 0
-26 -28 0
-26 -27 0
-27 -28 0
29 30 32 31 0
-29 -30 0
-29 -32 0
-29 -31 0
-30 -32 0
-30 -31 0
-31 -32 0
33 34 36 35 0
-33 -34 0
-33 -36 0
-33 -35 0
-34 -36 0
-34 -35 0
-35 -36 0
37 38 40 39 0
-37 -38 0
-37 -40 0
-37 -39 0
-38 -40 0
-38 -39 0
-39 -40 0
41 42 44 43 0
-41 -42 0
-41 -44 0
-41 -43 0
-42 -44 0
-42 -43 0
-43 -44 0
45 46 48 47 0
-45 -46 0
-45 -48 0
-45 -47 0
-46 -48 0
-46 -47 0
-47 -48 0
49 50 52 51 0
-49 -50 0
-49 -52 0
-49 -51 0
-50 -52 0
-50 -51 0
-51 -52 0
53 54 56 55 0
-53 -54 0
-53 -56 0
-53 -55 0
-54 -56 0
-54 -55 0
-55 -56 0
57 58 60 59 0
-57 -58 0
-57 -60 0
-57 -59 0
-58 -60 0
-58 -59 0
-59 -60 0
61 62 64 63 0
-61 -62 0
-61 -64 0
-61 -63 0
-62 -64 0
-62 -63 0
-63 -64 0
-1 26 0
-26 1 0
-2 25 0
-25 2 0
-4 27 0
-27 4 0
-3 28 0
-28 3 0
-5 54 0
-54 5 0
-6 53 0
-53 6 0
-8 55 0
-55 8 0
-7 56 0
-56 7 0
-9 58 0
-58 9 0
-10 57 0
-57 10 0
-12 59 0
-59 12 0
-11 60 0
-60 11 0
-13 30 0
-30 13 0
-14 29 0
-29 14 0
-16 31 0
-31 16 0
-15 32 0
-32 15 0
-17 62 0
-62 17 0
-18 61 0
-61 18 0
-20 63 0
-63 20 0
-19 64 0
-64 19 0
-21 34 0
-34 21 0
-22 33 0
-33 22 0
-24 35 0
-35 24 0
-23 36 0
-36 23 0
-37 42 0
-42 37 0
-38 41 0
-41 38 0
-40 43 0
-43 40 0
-39 44 0
-44 39 0
-45 50 0
-50 45 0
-46 49 0
-49 46 0
-48 51 0
-51 48 0
-47 52 0
-52 47 0
-1 -5 0
-1 -9 0
-5 -9 0
-13 -17 0
-21 -25 0
-29 -33 0
-29 -37 0
-33 -37 0
-41 -45 0
-49 -53 0
-57 -61 0
-2 -6 0
-2 -10 0
-6 -10 0
-14 -18 0
-22 -26 0
-30 -34 0
-30 -38 0
-34 -38 0
-42 -46 0
-50 -54 0
-58 -62 0
-4 -8 0
-4 -12 0
-8 -12 0
-16 -20 0
-24 -28 0
-32 -36 0
-32 -40 0
-36 -40 0
-44 -48 0
-52 -56 0
-60 -64 0
-3 -7 0
-3 -11 0
-7 -11 0
-15 -19 0
-23 -27 0
-31 -35 0
-31 -39 0
-35 -39 0
-43 -47 0
-51 -55 0
-59 -63 0
-1 -5 0
-1 -9 0
-5 -9 0
-13 -17 0
-21 -25 0
-29 -33 0
-29 -37 0
-33 -37 0
-41 -45 0
-49 -53 0
-57 -61 0
-2 -6 0
-2 -10 0
-6 -10 0
-14 -18 0
-22 -26 0
-30 -34 0
-30 -38 0
-34 -38 0
-42 -46 0
-50 -54 0
-58 -62 0
-4 -8 0
-4 -12 0
-8 -12 0
-16 -20 0
-24 -28 0
-32 -36 0
-32 -40 0
-36 -40 0
-44 -48 0
-52 -56 0
-60 -64 0
-3 -7 0
-3 -11 0
-7 -11 0
-15 -19 0
-23 -27 0
-31 -35 0
-31 -39 0
-35 -39 0
-43 -47 0
-51 -55 0
-59 -63 0
-1 -5 0
-1 -9 0
-5 -9 0
-13 -17 0
-21 -25 0
-29 -33 0
-29 -37 0
-33 -37 0
-41 -45 0
-49 -53 0
-57 -61 0
-2 -6 0
-2 -10 0
-6 -10 0
-14 -18 0
-22 -26 0
-30 -34 0
-30 -38 0
-34 -38 0
-42 -46 0
-50 -54 0
-58 -62 0
-4 -8 0
-4 -12 0
-8 -12 0
-16 -20 0
-24 -28 0
-32 -36 0
-32 -40 0
-36 -40 0
-44 -48 0
-52 -56 0
-60 -64 0
-3 -7 0
-3 -11 0
-7 -11 0
-15 -19 0
-23 -27 0
-31 -35 0
-31 -39 0
-35 -39 0
-43 -47 0
-51 -55 0
-59 -63 0
-1 -5 0
-1 -9 0
-5 -9 0
-13 -17 0
-21 -25 0
-29 -33 0
-29 -37 0
-33 -37 0
-41 -45 0
-49 -53 0
-57 -61 0
-2 -6 0
-2 -10 0
-6 -10 0
-14 -18 0
-22 -26 0
-30 -34 0
-30 -38 0
-34 -38 0
-42 -46 0
-50 -54 0
-58 -62 0
-4 -8 0
-4 -12 0
-8 -12 0
-16 -20 0
-24 -28 0
-32 -36 0
-32 -40 0
-36 -40 0
-44 -48 0
-52 -56 0
-60 -64 0
-3 -7 0
-3 -11 0
-7 -11 0
-15 -19 0
-23 -27 0
-31 -35 0
-31 -39 0
-35 -39 0
-43 -47 0
-51 -55 0
-59 -63 0
-1 -5 0
-1 -9 0
-5 -9 0
-13 -17 0
-21 -25 0
-29 -33 0
-29 -37 0
-33 -37 0
-41 -45 0
-49 -53 0
-57 -61 0
-2 -6 0
-2 -10 0
-6 -10 0
-14 -18 0
-22 -26 0
-30 -34 0
-30 -38 0
-34 -38 0
-42 -46 0
-50 -54 0
-58 -62 0
-4 -8 0
-4 -12 0
-8 -12 0
-16 -20 0
-24 -28 0
-32 -36 0
-32 -40 0
-36 -40 0
-44 -48 0
-52 -56 0
-60 -64 0
-3 -7 0
-3 -11 0
-7 -11 0
-15 -19 0
-23 -27 0
-31 -35 0
-31 -39 0
-35 -39 0
-43 -47 0
-51 -55 0
-59 -63 0
-1 -5 0
-1 -9 0
-5 -9 0
-13 -17 0
-21 -25 0
-29 -33 0
-29 -37 0
-33 -37 0
-41 -45 0
-49 -53 0
-57 -61 0
-2 -6 0
-2 -10 0
-6 -10 0
-14 -18 0
-22 -26 0
-30 -34 0
-30 -38 0
-34 -38 0
-42 -46 0
-50 -54 0
-58 -62 0
-4 -8 0
-4 -12 0
-8 -12 0
-16 -20 0
-24 -28 0
-32 -36 0
-32 -40 0
-36 -40 0
-44 -48 0
-52 -56 0
-60 -64 0
-3 -7 0
-3 -11 0
-7 -11 0
-15 -19 0
-23 -27 0
-31 -35 0
-31 -39 0
-35 -39 0
-43 -47 0
-51 -55 0
-59 -63 0
-1 -5 0
-1 -9 0
-5 -9 0
-13 -17 0
-21 -25 0
-29 -33 0
-29 -37 0
-33 -37 0
-41 -45 0
-49 -53 0
-57 -61 0
-2 -6 0
-2 -10 0
-6 -10 0
-14 -18 0
-22 -26 0
-30 -34 0
-30 -38 0
-34 -38 0
-42 -46 0
-50 -54 0
-58 -62 0
-4 -8 0
-4 -12 0
-8 -12 0
-16 -20 0
-24 -28 0
-32 -36 0
-32 -40 0
-36 -40 0
-44 -48 0
-52 -56 0
-60 -64 0
-3 -7 0
-3 -11 0
-7 -11 0
-15 -19 0
-23 -27 0
-31 -35 0
-31 -39 0
-35 -39 0
-43 -47 0
-51 -55 0
-59 -63 0
10 62 14 34 26 0
9 61 13 33 25 0
12 64 16 36 28 0
11 63 15 35 27 0
10 62 14 38 46 54 0
9 61 13 37 45 53 0
12 64 16 40 48 56 0
11 63 15 39 47 55 0
6 50 42 30 18 58 0
5 49 41 29 17 57 0
8 52 44 32 20 60 0
7 51 43 31 19 59 0
6 50 42 34 26 0
5 49 41 33 25 0
8 52 44 36 28 0
7 51 43 35 27 0
2 22 30 18 58 0
1 21 29 17 57 0
4 24 32 20 60 0
3 23 31 19 59 0
2 22 38 46 54 0
1 21 37 45 53 0
4 24 40 48 56 0
3 23 39 47 55 0
